CMD:
./solvers/bin/cadical --plain --no-reduce -t 1600 ./data/cnfs//bobtuint19neg/bobtuint19neg.78.cnf

c --- [ banner ] -------------------------------------------------------------
c 
c CaDiCaL SAT Solver
c Copyright (c) 2016-2024
c A. Biere, M. Fleury, N. Froleyks, K. Fazekas, F. Pollitt, T. Faller
c JKU Linz, University of Freiburg, TU Wien
c 
c Version 2.1.3 5296d3d2a9bf48c154ab2acb5e44625776d821bf
c g++ (Gentoo 12.3.1_p20230526 p2) 12.3.1 20230526 -Wall -Wextra -O3 -DNDEBUG
c Sat Aug 9 07:26:21 PDT 2025 Linux cedar2.int.cedar.computecanada.ca 5.14.0-362.24.2.el9_3.x86_64 x86_64
c 
c --- [ limit ] --------------------------------------------------------------
c 
c setting time limit to 1600 seconds real time (due to '-t 1600')
c 
c --- [ parsing input ] ------------------------------------------------------
c 
c reading DIMACS file from './data/cnfs//bobtuint19neg/bobtuint19neg.78.cnf'
c opening file to read './data/cnfs//bobtuint19neg/bobtuint19neg.78.cnf'
c found 'p cnf 172439 465917' header
c parsed 465917 clauses in 0.07 seconds process time
c 
c --- [ options ] ------------------------------------------------------------
c 
c   --compact=false                (different from default 'true')
c   --decompose=false              (different from default 'true')
c   --deduplicate=false            (different from default 'true')
c   --elim=false                   (different from default 'true')
c   --probe=false                  (different from default 'true')
c   --reduce=false                 (different from default 'true')
c   --subsume=false                (different from default 'true')
c   --ternary=false                (different from default 'true')
c   --transred=false               (different from default 'true')
c   --vivify=false                 (different from default 'true')
c 
c --- [ solving ] ------------------------------------------------------------
c 
c time measured in process time since initialization
c 
c  seconds  reductions  redundant  irredundant
c         MB    restarts       trail       variables
c          level   conflicts       glue          remaining
c 
c *  0.07 76  0 0   0    0    0  0% 0 453346 165750 96%
c {  0.08 76  0 0   0    0    0  0% 0 453346 165750 96%
c i  0.08 77 21 0   0    4    2  4% 1 453346 165639 96%
c i  0.13 78 334 0   3  417  251 21% 2 453346 165165 96%
c i  0.14 78 199 0  23  635  464 17% 2 453346 163684 95%
c i  0.14 78 197 0  24  645  470 17% 2 453346 160798 93%
c i  0.14 78 189 0  24  672  496 17% 2 453346 160483 93%
c i  0.14 78 189 0  25  673  496 17% 2 453346 160168 93%
c i  0.14 78 188 0  25  674  496 17% 2 453346 159853 93%
c i  0.14 78 188 0  25  675  496 17% 2 453346 159538 93%
c i  0.14 78 188 0  26  676  496 17% 2 453346 159223 92%
c i  0.14 78 187 0  26  677  496 17% 2 453346 158908 92%
c i  0.14 78 187 0  26  678  496 17% 2 453346 158593 92%
c i  0.14 78 186 0  27  679  496 17% 2 453346 158278 92%
c i  0.14 78 186 0  27  680  496 17% 2 453346 157963 92%
c i  0.14 78 186 0  27  681  496 17% 2 453346 157648 91%
c i  0.14 78 185 0  28  682  496 17% 2 453346 157333 91%
c i  0.14 78 185 0  28  683  496 17% 2 453346 157018 91%
c i  0.14 78 185 0  28  684  496 17% 2 453346 156703 91%
c i  0.14 78 184 0  29  685  496 17% 2 453346 156388 91%
c 
c  seconds   reductions  redundant  irredundant
c         MB     restarts       trail       variables
c           level   conflicts       glue          remaining
c 
c i  0.14 78 184 0  29  686  496 17% 2 453346 156073 91%
c i  0.14 78 184 0  29  687  496 17% 2 453346 155758 90%
c i  0.14 78 183 0  29  688  496 17% 2 453346 155443 90%
c i  0.14 78 183 0  29  689  496 17% 2 453346 155128 90%
c i  0.14 78 183 0  29  690  496 17% 2 453346 154813 90%
c i  0.15 78 182 0  29  691  496 17% 2 453346 154498 90%
c i  0.15 78 182 0  29  692  496 17% 2 453346 154183 89%
c i  0.15 78 181 0  29  693  496 17% 2 453346 153868 89%
c i  0.15 78 181 0  29  694  496 17% 2 453346 153553 89%
c i  0.15 78 181 0  29  695  496 17% 2 453346 153238 89%
c i  0.15 78 180 0  29  696  496 17% 2 453346 152923 89%
c i  0.15 78 180 0  29  697  496 17% 2 453346 152633 89%
c i  0.15 78 175 0  30  717  514 17% 2 453346 152293 88%
c i  0.15 78 174 0  31  718  514 17% 2 453346 151978 88%
c i  0.15 78 168 0  36  740  533 16% 2 453346 151977 88%
c i  0.15 78 156 0  47  791  577 16% 2 453346 150402 87%
c }  0.15 78 155 0  48  801  580 16% 2 453346 148842 86%
c 0  0.15 78 155 0  48  801  580 16% 2 453346 148842 86%
c 
c --- [ result ] -------------------------------------------------------------
c 
s UNSATISFIABLE
c 
c --- [ run-time profiling ] -------------------------------------------------
c 
c process time taken by individual solving procedures
c (percentage relative to process time for solving)
c 
c         0.08   99.88% search
c         0.08   98.04% unstable
c         0.07   93.21% parse
c         0.00    1.82% lucky
c         0.00    0.00% simplify
c   =================================
c         0.08   51.60% solve
c 
c last line shows process time for solving
c (percentage relative to total process time)
c 
c --- [ statistics ] ---------------------------------------------------------
c 
c chronological:               162        20.22 %  of conflicts
c conflicts:                   801     10181.38    per second
c decisions:                  3477     44195.59    per second
c fixed:                     23510        13.63 %  of all variables
c learned:                     621        77.53 %  per conflict
c learned_lits:               4219       100.00 %  learned literals
c minimized:                     0         0.00 %  learned literals
c shrunken:                    217         5.14 %  learned literals
c minishrunken:                 60         1.42 %  learned literals
c otfs:                         84        10.49 %  of conflict
c propagations:             919734        11.69 M  per second
c restarts:                     48        16.69    interval
c subsumed:                      5         0.00 %  of all clauses
c strengthened:                 84         0.02 %  of all clauses
c 
c seconds are measured in process time for solving
c 
c --- [ resources ] ----------------------------------------------------------
c 
c total process time since initialization:         0.15    seconds
c total real time since initialization:            0.16    seconds
c maximum resident set size of process:           76.23    MB
c 
c --- [ shutting down ] ------------------------------------------------------
c 
c exit 20
